/* Objective Function */

max: 8 X1 + 5X2;

/* Constraints */

X1 + X2 <= 6;
9 X1 + 5 X2 <= 45;

/* for the comments, its because it can't be run together at the same time 4 and 1 can go tog*/
X1 <= 3;
/*X1 >= 4;*/
/*X2 <= 1;*/
/*int x1, x2;*/

/* solution 5 result 40 opt max, 4 result 37 feesable solution but not min they dont work tog*/
/*X1 <= 4;*/
/*X1 >= 5;*/

/*This one is infeesable means bad*/
/*X2 >= 2;*/

/* this gives the full solution*/
/*int x1, x2;*/

/*X1 = 5;*/
/*X2 = 0;*/